;; translated from ./ctigar/dillig12.c.vmt
;; original benchmark available at: https://es-static.fbk.eu/people/griggio/ic3ia/index.html
;; author: Alberto Griggio <griggio@fbk.eu>
(set-logic HORN)
(declare-fun state (Bool Bool Bool Bool Bool Int Int Int Int Int Int Int) Bool)
(assert (forall ((|.s.2| Bool) (|.s.3| Bool) (|.s.0| Bool) (|.s.1| Bool) (|.s.0.next| Bool) (|.s.1.next| Bool) (|.s.2.next| Bool) (|.s.3.next| Bool) (|.s.4.next| Bool) (|main.flag.next| Int) (|main.flag| Int) (|main.b.next| Int) (|main.b| Int) (|main.x.next| Int) (|main.x| Int) (|main.a.next| Int) (|main.a| Int) (|main.s.next| Int) (|main.s| Int) (|main.t.next| Int) (|main.t| Int) (|main.y.next| Int) (|main.y| Int) (|.inputVar.0| Int) (|.s.4| Bool)) (=> (let ((.def_20 (not .s.4)))
(let ((.def_17 (not .s.3)))
(let ((.def_14 (not .s.2)))
(let ((.def_10 (not .s.1)))
(let ((.def_12 (and .def_10 .s.0)))
(let ((.def_15 (and .def_12 .def_14)))
(let ((.def_18 (and .def_15 .def_17)))
(let ((.def_21 (and .def_18 .def_20)))
.def_21)))))))) (state |.s.1| |.s.0| |.s.2| |.s.3| |.s.4| |main.flag| |main.b| |main.x| |main.a| |main.s| |main.t| |main.y|))))
(assert (forall ((|.s.2| Bool) (|.s.3| Bool) (|.s.0| Bool) (|.s.1| Bool) (|.s.0.next| Bool) (|.s.1.next| Bool) (|.s.2.next| Bool) (|.s.3.next| Bool) (|.s.4.next| Bool) (|main.flag.next| Int) (|main.flag| Int) (|main.b.next| Int) (|main.b| Int) (|main.x.next| Int) (|main.x| Int) (|main.a.next| Int) (|main.a| Int) (|main.s.next| Int) (|main.s| Int) (|main.t.next| Int) (|main.t| Int) (|main.y.next| Int) (|main.y| Int) (|.inputVar.0| Int) (|.s.4| Bool)) (=> (and (state |.s.1| |.s.0| |.s.2| |.s.3| |.s.4| |main.flag| |main.b| |main.x| |main.a| |main.s| |main.t| |main.y|) (let ((.def_66 (not .s.0)))
(let ((.def_10 (not .s.1)))
(let ((.def_103 (and .def_10 .def_66)))
(let ((.def_14 (not .s.2)))
(let ((.def_104 (and .def_14 .def_103)))
(let ((.def_17 (not .s.3)))
(let ((.def_263 (and .def_17 .def_104)))
(let ((.def_20 (not .s.4)))
(let ((.def_496 (and .def_20 .def_263)))
(let ((.def_497 (not .def_496)))
(let ((.def_75 (not .s.0.next)))
(let ((.def_74 (not .s.1.next)))
(let ((.def_76 (and .def_74 .def_75)))
(let ((.def_31 (not .s.2.next)))
(let ((.def_77 (and .def_31 .def_76)))
(let ((.def_73 (not .s.3.next)))
(let ((.def_78 (and .def_73 .def_77)))
(let ((.def_72 (not .s.4.next)))
(let ((.def_79 (and .def_72 .def_78)))
(let ((.def_39 (= main.flag main.flag.next)))
(let ((.def_80 (and .def_39 .def_79)))
(let ((.def_43 (= main.b main.b.next)))
(let ((.def_81 (and .def_43 .def_80)))
(let ((.def_47 (= main.x main.x.next)))
(let ((.def_82 (and .def_47 .def_81)))
(let ((.def_51 (= main.a main.a.next)))
(let ((.def_83 (and .def_51 .def_82)))
(let ((.def_55 (= main.s main.s.next)))
(let ((.def_84 (and .def_55 .def_83)))
(let ((.def_59 (= main.t main.t.next)))
(let ((.def_85 (and .def_59 .def_84)))
(let ((.def_63 (= main.y main.y.next)))
(let ((.def_86 (and .def_63 .def_85)))
(let ((.def_498 (or .def_86 .def_497)))
(let ((.def_487 (= main.b.next 0)))
(let ((.def_91 (and .s.1.next .def_75)))
(let ((.def_92 (and .def_31 .def_91)))
(let ((.def_253 (and .def_73 .def_92)))
(let ((.def_342 (and .def_72 .def_253)))
(let ((.def_488 (and .def_342 .def_487)))
(let ((.def_486 (= main.s.next 0)))
(let ((.def_489 (and .def_486 .def_488)))
(let ((.def_485 (= main.a.next 0)))
(let ((.def_490 (and .def_485 .def_489)))
(let ((.def_484 (= main.t.next 0)))
(let ((.def_491 (and .def_484 .def_490)))
(let ((.def_492 (and .def_39 .def_491)))
(let ((.def_493 (and .def_47 .def_492)))
(let ((.def_494 (and .def_63 .def_493)))
(let ((.def_12 (and .def_10 .s.0)))
(let ((.def_15 (and .def_12 .def_14)))
(let ((.def_18 (and .def_15 .def_17)))
(let ((.def_21 (and .def_18 .def_20)))
(let ((.def_483 (not .def_21)))
(let ((.def_495 (or .def_483 .def_494)))
(let ((.def_499 (and .def_495 .def_498)))
(let ((.def_29 (and .s.0.next .s.1.next)))
(let ((.def_32 (and .def_29 .def_31)))
(let ((.def_226 (and .def_32 .def_73)))
(let ((.def_474 (and .def_72 .def_226)))
(let ((.def_475 (and .def_39 .def_474)))
(let ((.def_476 (and .def_43 .def_475)))
(let ((.def_477 (and .def_47 .def_476)))
(let ((.def_478 (and .def_51 .def_477)))
(let ((.def_479 (and .def_55 .def_478)))
(let ((.def_480 (and .def_59 .def_479)))
(let ((.def_481 (and .def_63 .def_480)))
(let ((.def_67 (and .s.1 .def_66)))
(let ((.def_68 (and .def_14 .def_67)))
(let ((.def_205 (and .def_17 .def_68)))
(let ((.def_459 (and .def_20 .def_205)))
(let ((.def_209 (= .inputVar.0 0)))
(let ((.def_472 (and .def_209 .def_459)))
(let ((.def_473 (not .def_472)))
(let ((.def_482 (or .def_473 .def_481)))
(let ((.def_500 (and .def_482 .def_499)))
(let ((.def_131 (and .s.2.next .def_76)))
(let ((.def_462 (and .s.3.next .def_131)))
(let ((.def_463 (and .def_72 .def_462)))
(let ((.def_464 (and .def_39 .def_463)))
(let ((.def_465 (and .def_43 .def_464)))
(let ((.def_466 (and .def_47 .def_465)))
(let ((.def_467 (and .def_51 .def_466)))
(let ((.def_468 (and .def_55 .def_467)))
(let ((.def_469 (and .def_59 .def_468)))
(let ((.def_470 (and .def_63 .def_469)))
(let ((.def_210 (not .def_209)))
(let ((.def_460 (and .def_210 .def_459)))
(let ((.def_461 (not .def_460)))
(let ((.def_471 (or .def_461 .def_470)))
(let ((.def_501 (and .def_471 .def_500)))
(let ((.def_132 (and .def_73 .def_131)))
(let ((.def_450 (and .def_72 .def_132)))
(let ((.def_447 (* (- 1) main.a.next)))
(let ((.def_448 (+ main.a .def_447)))
(let ((.def_449 (= .def_448 (- 1))))
(let ((.def_451 (and .def_449 .def_450)))
(let ((.def_452 (and .def_39 .def_451)))
(let ((.def_453 (and .def_43 .def_452)))
(let ((.def_454 (and .def_47 .def_453)))
(let ((.def_455 (and .def_55 .def_454)))
(let ((.def_456 (and .def_59 .def_455)))
(let ((.def_457 (and .def_63 .def_456)))
(let ((.def_22 (and .s.1 .s.0)))
(let ((.def_23 (and .def_14 .def_22)))
(let ((.def_193 (and .def_17 .def_23)))
(let ((.def_445 (and .def_20 .def_193)))
(let ((.def_446 (not .def_445)))
(let ((.def_458 (or .def_446 .def_457)))
(let ((.def_502 (and .def_458 .def_501)))
(let ((.def_112 (and .s.0.next .def_74)))
(let ((.def_182 (and .s.2.next .def_112)))
(let ((.def_183 (and .def_73 .def_182)))
(let ((.def_436 (and .def_72 .def_183)))
(let ((.def_433 (* (- 1) main.b.next)))
(let ((.def_434 (+ main.b .def_433)))
(let ((.def_435 (= .def_434 (- 1))))
(let ((.def_437 (and .def_435 .def_436)))
(let ((.def_438 (and .def_39 .def_437)))
(let ((.def_439 (and .def_47 .def_438)))
(let ((.def_440 (and .def_51 .def_439)))
(let ((.def_441 (and .def_55 .def_440)))
(let ((.def_442 (and .def_59 .def_441)))
(let ((.def_443 (and .def_63 .def_442)))
(let ((.def_178 (and .s.2 .def_103)))
(let ((.def_179 (and .def_17 .def_178)))
(let ((.def_431 (and .def_20 .def_179)))
(let ((.def_432 (not .def_431)))
(let ((.def_444 (or .def_432 .def_443)))
(let ((.def_503 (and .def_444 .def_502)))
(let ((.def_213 (and .s.2.next .def_91)))
(let ((.def_214 (and .def_73 .def_213)))
(let ((.def_422 (and .def_72 .def_214)))
(let ((.def_418 (* (- 1) main.s.next)))
(let ((.def_419 (+ main.s .def_418)))
(let ((.def_420 (+ main.a .def_419)))
(let ((.def_421 (= .def_420 0)))
(let ((.def_423 (and .def_421 .def_422)))
(let ((.def_424 (and .def_39 .def_423)))
(let ((.def_425 (and .def_43 .def_424)))
(let ((.def_426 (and .def_47 .def_425)))
(let ((.def_427 (and .def_51 .def_426)))
(let ((.def_428 (and .def_59 .def_427)))
(let ((.def_429 (and .def_63 .def_428)))
(let ((.def_164 (and .def_12 .s.2)))
(let ((.def_165 (and .def_17 .def_164)))
(let ((.def_416 (and .def_20 .def_165)))
(let ((.def_417 (not .def_416)))
(let ((.def_430 (or .def_417 .def_429)))
(let ((.def_504 (and .def_430 .def_503)))
(let ((.def_153 (and .def_29 .s.2.next)))
(let ((.def_154 (and .def_73 .def_153)))
(let ((.def_407 (and .def_72 .def_154)))
(let ((.def_375 (* (- 1) main.t.next)))
(let ((.def_376 (+ main.t .def_375)))
(let ((.def_405 (+ main.b .def_376)))
(let ((.def_406 (= .def_405 0)))
(let ((.def_408 (and .def_406 .def_407)))
(let ((.def_409 (and .def_39 .def_408)))
(let ((.def_410 (and .def_43 .def_409)))
(let ((.def_411 (and .def_47 .def_410)))
(let ((.def_412 (and .def_51 .def_411)))
(let ((.def_413 (and .def_55 .def_412)))
(let ((.def_414 (and .def_63 .def_413)))
(let ((.def_142 (and .s.2 .def_67)))
(let ((.def_143 (and .def_17 .def_142)))
(let ((.def_403 (and .def_20 .def_143)))
(let ((.def_404 (not .def_403)))
(let ((.def_415 (or .def_404 .def_414)))
(let ((.def_505 (and .def_415 .def_504)))
(let ((.def_127 (and .s.2 .def_22)))
(let ((.def_128 (and .def_17 .def_127)))
(let ((.def_388 (and .def_20 .def_128)))
(let ((.def_309 (= main.flag 0)))
(let ((.def_400 (and .def_309 .def_388)))
(let ((.def_401 (not .def_400)))
(let ((.def_93 (and .s.3.next .def_92)))
(let ((.def_364 (and .def_72 .def_93)))
(let ((.def_365 (and .def_39 .def_364)))
(let ((.def_366 (and .def_43 .def_365)))
(let ((.def_367 (and .def_47 .def_366)))
(let ((.def_368 (and .def_51 .def_367)))
(let ((.def_369 (and .def_55 .def_368)))
(let ((.def_370 (and .def_59 .def_369)))
(let ((.def_371 (and .def_63 .def_370)))
(let ((.def_402 (or .def_371 .def_401)))
(let ((.def_506 (and .def_402 .def_505)))
(let ((.def_241 (and .s.3.next .def_77)))
(let ((.def_391 (and .def_72 .def_241)))
(let ((.def_392 (and .def_39 .def_391)))
(let ((.def_393 (and .def_43 .def_392)))
(let ((.def_394 (and .def_47 .def_393)))
(let ((.def_395 (and .def_51 .def_394)))
(let ((.def_396 (and .def_55 .def_395)))
(let ((.def_397 (and .def_59 .def_396)))
(let ((.def_398 (and .def_63 .def_397)))
(let ((.def_310 (not .def_309)))
(let ((.def_389 (and .def_310 .def_388)))
(let ((.def_390 (not .def_389)))
(let ((.def_399 (or .def_390 .def_398)))
(let ((.def_507 (and .def_399 .def_506)))
(let ((.def_113 (and .def_31 .def_112)))
(let ((.def_114 (and .s.3.next .def_113)))
(let ((.def_379 (and .def_72 .def_114)))
(let ((.def_377 (+ main.a .def_376)))
(let ((.def_378 (= .def_377 0)))
(let ((.def_380 (and .def_378 .def_379)))
(let ((.def_381 (and .def_39 .def_380)))
(let ((.def_382 (and .def_43 .def_381)))
(let ((.def_383 (and .def_47 .def_382)))
(let ((.def_384 (and .def_51 .def_383)))
(let ((.def_385 (and .def_55 .def_384)))
(let ((.def_386 (and .def_63 .def_385)))
(let ((.def_105 (and .s.3 .def_104)))
(let ((.def_373 (and .def_20 .def_105)))
(let ((.def_374 (not .def_373)))
(let ((.def_387 (or .def_374 .def_386)))
(let ((.def_508 (and .def_387 .def_507)))
(let ((.def_88 (and .def_15 .s.3)))
(let ((.def_362 (and .def_20 .def_88)))
(let ((.def_363 (not .def_362)))
(let ((.def_372 (or .def_363 .def_371)))
(let ((.def_509 (and .def_372 .def_508)))
(let ((.def_34 (and .def_32 .s.3.next)))
(let ((.def_353 (and .def_34 .def_72)))
(let ((.def_354 (and .def_59 .def_353)))
(let ((.def_355 (and .def_39 .def_354)))
(let ((.def_356 (and .def_43 .def_355)))
(let ((.def_357 (and .def_47 .def_356)))
(let ((.def_358 (and .def_51 .def_357)))
(let ((.def_359 (and .def_55 .def_358)))
(let ((.def_360 (and .def_63 .def_359)))
(let ((.def_69 (and .s.3 .def_68)))
(let ((.def_351 (and .def_20 .def_69)))
(let ((.def_352 (not .def_351)))
(let ((.def_361 (or .def_352 .def_360)))
(let ((.def_510 (and .def_361 .def_509)))
(let ((.def_343 (and .def_39 .def_342)))
(let ((.def_344 (and .def_43 .def_343)))
(let ((.def_345 (and .def_47 .def_344)))
(let ((.def_346 (and .def_51 .def_345)))
(let ((.def_347 (and .def_55 .def_346)))
(let ((.def_348 (and .def_59 .def_347)))
(let ((.def_349 (and .def_63 .def_348)))
(let ((.def_24 (and .s.3 .def_23)))
(let ((.def_340 (and .def_20 .def_24)))
(let ((.def_341 (not .def_340)))
(let ((.def_350 (or .def_341 .def_349)))
(let ((.def_511 (and .def_350 .def_510)))
(let ((.def_330 (and .s.3.next .def_182)))
(let ((.def_331 (and .def_72 .def_330)))
(let ((.def_329 (= main.x.next 1)))
(let ((.def_332 (and .def_329 .def_331)))
(let ((.def_333 (and .def_39 .def_332)))
(let ((.def_334 (and .def_43 .def_333)))
(let ((.def_335 (and .def_51 .def_334)))
(let ((.def_336 (and .def_55 .def_335)))
(let ((.def_337 (and .def_59 .def_336)))
(let ((.def_338 (and .def_63 .def_337)))
(let ((.def_326 (and .s.3 .def_178)))
(let ((.def_327 (and .def_20 .def_326)))
(let ((.def_328 (not .def_327)))
(let ((.def_339 (or .def_328 .def_338)))
(let ((.def_512 (and .def_339 .def_511)))
(let ((.def_307 (and .s.3 .def_164)))
(let ((.def_308 (and .def_20 .def_307)))
(let ((.def_323 (and .def_308 .def_309)))
(let ((.def_324 (not .def_323)))
(let ((.def_278 (and .s.4.next .def_78)))
(let ((.def_279 (and .def_39 .def_278)))
(let ((.def_280 (and .def_43 .def_279)))
(let ((.def_281 (and .def_47 .def_280)))
(let ((.def_282 (and .def_51 .def_281)))
(let ((.def_283 (and .def_55 .def_282)))
(let ((.def_284 (and .def_59 .def_283)))
(let ((.def_285 (and .def_63 .def_284)))
(let ((.def_325 (or .def_285 .def_324)))
(let ((.def_513 (and .def_325 .def_512)))
(let ((.def_313 (and .s.3.next .def_213)))
(let ((.def_314 (and .def_72 .def_313)))
(let ((.def_315 (and .def_39 .def_314)))
(let ((.def_316 (and .def_43 .def_315)))
(let ((.def_317 (and .def_47 .def_316)))
(let ((.def_318 (and .def_51 .def_317)))
(let ((.def_319 (and .def_55 .def_318)))
(let ((.def_320 (and .def_59 .def_319)))
(let ((.def_321 (and .def_63 .def_320)))
(let ((.def_311 (and .def_308 .def_310)))
(let ((.def_312 (not .def_311)))
(let ((.def_322 (or .def_312 .def_321)))
(let ((.def_514 (and .def_322 .def_513)))
(let ((.def_297 (and .s.3.next .def_153)))
(let ((.def_298 (and .def_72 .def_297)))
(let ((.def_290 (* (- 1) main.t)))
(let ((.def_292 (* 2 main.s)))
(let ((.def_294 (+ .def_292 .def_290)))
(let ((.def_295 (+ main.x.next .def_294)))
(let ((.def_296 (= .def_295 2)))
(let ((.def_299 (and .def_296 .def_298)))
(let ((.def_300 (and .def_39 .def_299)))
(let ((.def_301 (and .def_43 .def_300)))
(let ((.def_302 (and .def_51 .def_301)))
(let ((.def_303 (and .def_55 .def_302)))
(let ((.def_304 (and .def_59 .def_303)))
(let ((.def_305 (and .def_63 .def_304)))
(let ((.def_287 (and .s.3 .def_142)))
(let ((.def_288 (and .def_20 .def_287)))
(let ((.def_289 (not .def_288)))
(let ((.def_306 (or .def_289 .def_305)))
(let ((.def_515 (and .def_306 .def_514)))
(let ((.def_275 (and .s.3 .def_127)))
(let ((.def_276 (and .def_20 .def_275)))
(let ((.def_277 (not .def_276)))
(let ((.def_286 (or .def_277 .def_285)))
(let ((.def_516 (and .def_286 .def_515)))
(let ((.def_266 (= main.y.next 0)))
(let ((.def_168 (and .def_73 .def_113)))
(let ((.def_169 (and .s.4.next .def_168)))
(let ((.def_267 (and .def_169 .def_266)))
(let ((.def_268 (and .def_39 .def_267)))
(let ((.def_269 (and .def_43 .def_268)))
(let ((.def_270 (and .def_47 .def_269)))
(let ((.def_271 (and .def_51 .def_270)))
(let ((.def_272 (and .def_55 .def_271)))
(let ((.def_273 (and .def_59 .def_272)))
(let ((.def_264 (and .s.4 .def_263)))
(let ((.def_265 (not .def_264)))
(let ((.def_274 (or .def_265 .def_273)))
(let ((.def_517 (and .def_274 .def_516)))
(let ((.def_254 (and .s.4.next .def_253)))
(let ((.def_255 (and .def_39 .def_254)))
(let ((.def_256 (and .def_43 .def_255)))
(let ((.def_257 (and .def_47 .def_256)))
(let ((.def_258 (and .def_51 .def_257)))
(let ((.def_259 (and .def_55 .def_258)))
(let ((.def_260 (and .def_59 .def_259)))
(let ((.def_261 (and .def_63 .def_260)))
(let ((.def_237 (<= main.y main.x)))
(let ((.def_236 (and .def_18 .s.4)))
(let ((.def_251 (and .def_236 .def_237)))
(let ((.def_252 (not .def_251)))
(let ((.def_262 (or .def_252 .def_261)))
(let ((.def_518 (and .def_262 .def_517)))
(let ((.def_242 (and .s.4.next .def_241)))
(let ((.def_243 (and .def_39 .def_242)))
(let ((.def_244 (and .def_43 .def_243)))
(let ((.def_245 (and .def_47 .def_244)))
(let ((.def_246 (and .def_51 .def_245)))
(let ((.def_247 (and .def_55 .def_246)))
(let ((.def_248 (and .def_59 .def_247)))
(let ((.def_249 (and .def_63 .def_248)))
(let ((.def_238 (not .def_237)))
(let ((.def_239 (and .def_236 .def_238)))
(let ((.def_240 (not .def_239)))
(let ((.def_250 (or .def_240 .def_249)))
(let ((.def_519 (and .def_250 .def_518)))
(let ((.def_227 (and .s.4.next .def_226)))
(let ((.def_228 (and .def_39 .def_227)))
(let ((.def_229 (and .def_43 .def_228)))
(let ((.def_230 (and .def_47 .def_229)))
(let ((.def_231 (and .def_51 .def_230)))
(let ((.def_232 (and .def_55 .def_231)))
(let ((.def_233 (and .def_59 .def_232)))
(let ((.def_234 (and .def_63 .def_233)))
(let ((.def_206 (and .s.4 .def_205)))
(let ((.def_224 (and .def_206 .def_209)))
(let ((.def_225 (not .def_224)))
(let ((.def_235 (or .def_225 .def_234)))
(let ((.def_520 (and .def_235 .def_519)))
(let ((.def_215 (and .s.4.next .def_214)))
(let ((.def_216 (and .def_39 .def_215)))
(let ((.def_217 (and .def_43 .def_216)))
(let ((.def_218 (and .def_47 .def_217)))
(let ((.def_219 (and .def_51 .def_218)))
(let ((.def_220 (and .def_55 .def_219)))
(let ((.def_221 (and .def_59 .def_220)))
(let ((.def_222 (and .def_63 .def_221)))
(let ((.def_211 (and .def_206 .def_210)))
(let ((.def_212 (not .def_211)))
(let ((.def_223 (or .def_212 .def_222)))
(let ((.def_521 (and .def_223 .def_520)))
(let ((.def_148 (* (- 1) main.y.next)))
(let ((.def_149 (+ main.y .def_148)))
(let ((.def_196 (= .def_149 (- 1))))
(let ((.def_133 (and .s.4.next .def_132)))
(let ((.def_197 (and .def_133 .def_196)))
(let ((.def_198 (and .def_39 .def_197)))
(let ((.def_199 (and .def_43 .def_198)))
(let ((.def_200 (and .def_47 .def_199)))
(let ((.def_201 (and .def_51 .def_200)))
(let ((.def_202 (and .def_55 .def_201)))
(let ((.def_203 (and .def_59 .def_202)))
(let ((.def_194 (and .s.4 .def_193)))
(let ((.def_195 (not .def_194)))
(let ((.def_204 (or .def_195 .def_203)))
(let ((.def_522 (and .def_204 .def_521)))
(let ((.def_184 (and .s.4.next .def_183)))
(let ((.def_185 (and .def_63 .def_184)))
(let ((.def_186 (and .def_39 .def_185)))
(let ((.def_187 (and .def_43 .def_186)))
(let ((.def_188 (and .def_47 .def_187)))
(let ((.def_189 (and .def_51 .def_188)))
(let ((.def_190 (and .def_55 .def_189)))
(let ((.def_191 (and .def_59 .def_190)))
(let ((.def_180 (and .s.4 .def_179)))
(let ((.def_181 (not .def_180)))
(let ((.def_192 (or .def_181 .def_191)))
(let ((.def_523 (and .def_192 .def_522)))
(let ((.def_170 (and .def_39 .def_169)))
(let ((.def_171 (and .def_43 .def_170)))
(let ((.def_172 (and .def_47 .def_171)))
(let ((.def_173 (and .def_51 .def_172)))
(let ((.def_174 (and .def_55 .def_173)))
(let ((.def_175 (and .def_59 .def_174)))
(let ((.def_176 (and .def_63 .def_175)))
(let ((.def_166 (and .s.4 .def_165)))
(let ((.def_167 (not .def_166)))
(let ((.def_177 (or .def_167 .def_176)))
(let ((.def_524 (and .def_177 .def_523)))
(let ((.def_155 (and .s.4.next .def_154)))
(let ((.def_152 (= .def_149 (- 2))))
(let ((.def_156 (and .def_152 .def_155)))
(let ((.def_157 (and .def_39 .def_156)))
(let ((.def_158 (and .def_43 .def_157)))
(let ((.def_159 (and .def_47 .def_158)))
(let ((.def_160 (and .def_51 .def_159)))
(let ((.def_161 (and .def_55 .def_160)))
(let ((.def_162 (and .def_59 .def_161)))
(let ((.def_144 (and .s.4 .def_143)))
(let ((.def_145 (not .def_144)))
(let ((.def_163 (or .def_145 .def_162)))
(let ((.def_525 (and .def_163 .def_524)))
(let ((.def_134 (and .def_39 .def_133)))
(let ((.def_135 (and .def_43 .def_134)))
(let ((.def_136 (and .def_47 .def_135)))
(let ((.def_137 (and .def_51 .def_136)))
(let ((.def_138 (and .def_55 .def_137)))
(let ((.def_139 (and .def_59 .def_138)))
(let ((.def_140 (and .def_63 .def_139)))
(let ((.def_129 (and .s.4 .def_128)))
(let ((.def_130 (not .def_129)))
(let ((.def_141 (or .def_130 .def_140)))
(let ((.def_526 (and .def_141 .def_525)))
(let ((.def_108 (<= 5 main.y)))
(let ((.def_106 (and .s.4 .def_105)))
(let ((.def_124 (and .def_106 .def_108)))
(let ((.def_125 (not .def_124)))
(let ((.def_36 (and .def_34 .s.4.next)))
(let ((.def_40 (and .def_36 .def_39)))
(let ((.def_44 (and .def_40 .def_43)))
(let ((.def_48 (and .def_44 .def_47)))
(let ((.def_52 (and .def_48 .def_51)))
(let ((.def_56 (and .def_52 .def_55)))
(let ((.def_60 (and .def_56 .def_59)))
(let ((.def_64 (and .def_60 .def_63)))
(let ((.def_126 (or .def_64 .def_125)))
(let ((.def_527 (and .def_126 .def_526)))
(let ((.def_115 (and .s.4.next .def_114)))
(let ((.def_116 (and .def_39 .def_115)))
(let ((.def_117 (and .def_43 .def_116)))
(let ((.def_118 (and .def_47 .def_117)))
(let ((.def_119 (and .def_51 .def_118)))
(let ((.def_120 (and .def_55 .def_119)))
(let ((.def_121 (and .def_59 .def_120)))
(let ((.def_122 (and .def_63 .def_121)))
(let ((.def_109 (not .def_108)))
(let ((.def_110 (and .def_106 .def_109)))
(let ((.def_111 (not .def_110)))
(let ((.def_123 (or .def_111 .def_122)))
(let ((.def_528 (and .def_123 .def_527)))
(let ((.def_94 (and .s.4.next .def_93)))
(let ((.def_95 (and .def_39 .def_94)))
(let ((.def_96 (and .def_43 .def_95)))
(let ((.def_97 (and .def_47 .def_96)))
(let ((.def_98 (and .def_51 .def_97)))
(let ((.def_99 (and .def_55 .def_98)))
(let ((.def_100 (and .def_59 .def_99)))
(let ((.def_101 (and .def_63 .def_100)))
(let ((.def_89 (and .s.4 .def_88)))
(let ((.def_90 (not .def_89)))
(let ((.def_102 (or .def_90 .def_101)))
(let ((.def_529 (and .def_102 .def_528)))
(let ((.def_70 (and .s.4 .def_69)))
(let ((.def_71 (not .def_70)))
(let ((.def_87 (or .def_71 .def_86)))
(let ((.def_530 (and .def_87 .def_529)))
(let ((.def_25 (and .s.4 .def_24)))
(let ((.def_26 (not .def_25)))
(let ((.def_65 (or .def_26 .def_64)))
(let ((.def_531 (and .def_65 .def_530)))
.def_531))))))))))))))))))))))))))))))))))))))))))))))))))))))))))))))))))))))))))))))))))))))))))))))))))))))))))))))))))))))))))))))))))))))))))))))))))))))))))))))))))))))))))))))))))))))))))))))))))))))))))))))))))))))))))))))))))))))))))))))))))))))))))))))))))))))))))))))))))))))))))))))))))))))))))))))))))))))))))))))))))))))))))))))))))))))))))))))))))))))))))))))))))))))))))))))))))))))))))))))))))))))))))))))))))))))))))))))))))))))))))))))))))))))))))))))))))))))))))))))))))))))))))) (state |.s.1.next| |.s.0.next| |.s.2.next| |.s.3.next| |.s.4.next| |main.flag.next| |main.b.next| |main.x.next| |main.a.next| |main.s.next| |main.t.next| |main.y.next|))))
(assert (forall ((|.s.2| Bool) (|.s.3| Bool) (|.s.0| Bool) (|.s.1| Bool) (|.s.0.next| Bool) (|.s.1.next| Bool) (|.s.2.next| Bool) (|.s.3.next| Bool) (|.s.4.next| Bool) (|main.flag.next| Int) (|main.flag| Int) (|main.b.next| Int) (|main.b| Int) (|main.x.next| Int) (|main.x| Int) (|main.a.next| Int) (|main.a| Int) (|main.s.next| Int) (|main.s| Int) (|main.t.next| Int) (|main.t| Int) (|main.y.next| Int) (|main.y| Int) (|.inputVar.0| Int) (|.s.4| Bool)) (=> (state |.s.1| |.s.0| |.s.2| |.s.3| |.s.4| |main.flag| |main.b| |main.x| |main.a| |main.s| |main.t| |main.y|) (let ((.def_22 (and .s.1 .s.0)))
(let ((.def_14 (not .s.2)))
(let ((.def_23 (and .def_14 .def_22)))
(let ((.def_24 (and .s.3 .def_23)))
(let ((.def_25 (and .s.4 .def_24)))
(let ((.def_26 (not .def_25)))
.def_26)))))))))
(check-sat)
